networks/zoo_76_282/zoo_76_282.txt
Number of groups: 54
Flow 2: {1 36} {36 6} 
Flow 8: {2 6} 
Flow 13: {3 6} 
Flow 18: {4 36} 
Flow 23: {5 35} 
Flow 29: {6 23} {23 61} 
Flow 36: {7 19} 
Flow 40: {8 35} 
Flow 45: {9 13} {13 6} {6 14} {14 52} 
Flow 53: {11 19} {19 31} {31 69} 
Flow 56: {12 19} 
Flow 59: {19 12} {12 50} 
Flow 68: {14 6} {6 2} {2 40} 
Flow 69: {36 4} {4 42} 
Flow 71: {19 7} {7 45} 
Flow 72: {35 8} {8 46} 
Flow 74: {6 10} {10 48} 
Flow 75: {19 11} {11 49} 
Flow 80: {6 13} {13 21} {21 59} 
Flow 82: {6 34} {34 25} {25 63} 
Flow 83: {35 26} {26 64} 
Flow 85: {6 28} {28 66} 
Flow 87: {19 32} {32 70} 
Flow 91: {35 37} {37 75} 
Flow 101: {15 19} {19 20} {20 58} 
Flow 114: {16 34} {34 19} 
Flow 119: {17 31} 
Flow 122: {18 36} 
Flow 125: {36 1} {1 39} 
Flow 127: {6 3} {3 41} 
Flow 129: {35 5} {5 43} 
Flow 137: {13 51} 
Flow 140: {34 16} {16 54} 
Flow 141: {31 17} {17 55} 
Flow 144: {6 22} {22 60} 
Flow 148: {6 27} {27 65} 
Flow 150: {19 29} {29 67} 
Flow 151: {6 30} {30 68} 
Flow 158: {31 38} {38 76} 
Flow 161: {20 19} {19 15} {15 53} 
Flow 166: {21 13} {13 34} {34 72} 
Flow 169: {22 6} 
Flow 180: {23 6} {6 36} {36 74} 
Flow 184: {24 31} {31 19} {19 57} 
Flow 187: {25 34} {34 6} 
Flow 193: {26 35} 
Flow 194: {27 6} {6 44} 
Flow 201: {28 6} 
Flow 208: {29 19} 
Flow 217: {32 19} {19 34} {34 35} {35 73} 
Flow 222: {33 6} 
Flow 231: {34 13} {13 9} {9 47} 
Flow 276: {37 35} {35 34} 
Flow 279: {38 31} 
Time taken running everything: 2 seconds
