networks/zoo_76_282/zoo_76_282.sol
<?xml version = "1.0" encoding="UTF-8" standalone="yes"?>
<CPLEXSolution version="1.2">
 <header
   problemName="networks/zoo_76_282/zoo_76_282.lp"
   solutionName="incumbent"
   solutionIndex="-1"
   objectiveValue="54"
   solutionTypeValue="3"
   solutionTypeString="primal"
   solutionStatusValue="101"
   solutionStatusString="integer optimal solution"
   solutionMethodString="mip"
   primalFeasible="1"
   dualFeasible="1"
   MIPNodes="0"
   MIPIterations="3190"
   writeLevel="3"/>
 <quality
   epInt="1.0000000000000001e-05"
   epRHS="9.9999999999999995e-07"
   maxIntInfeas="0"
   maxPrimalInfeas="1.000000082740371e-09"
   maxX="3.0001000000000033"
   maxSlack="9.0001000000000033"/>
 <variables>
  <variable name="Y(2,36)" index="108" value="1"/>
  <variable name="Y(8,2)" index="512" value="1"/>
  <variable name="Y(13,3)" index="878" value="1"/>
  <variable name="Y(18,4)" index="1244" value="1"/>
  <variable name="Y(23,5)" index="1610" value="1"/>
  <variable name="Y(29,23)" index="2066" value="1"/>
  <variable name="Y(36,7)" index="2561" value="1"/>
  <variable name="Y(40,8)" index="2854" value="1"/>
  <variable name="Y(45,14)" index="3225" value="1"/>
  <variable name="Y(53,31)" index="3826" value="1"/>
  <variable name="Y(56,12)" index="4026" value="1"/>
  <variable name="Y(59,12)" index="4245" value="1"/>
  <variable name="Y(68,2)" index="4892" value="1"/>
  <variable name="Y(69,4)" index="4967" value="1"/>
  <variable name="Y(71,7)" index="5116" value="1"/>
  <variable name="Y(72,8)" index="5190" value="1"/>
  <variable name="Y(74,10)" index="5338" value="1"/>
  <variable name="Y(75,11)" index="5412" value="1"/>
  <variable name="Y(80,21)" index="5787" value="1"/>
  <variable name="Y(82,25)" index="5937" value="1"/>
  <variable name="Y(83,26)" index="6011" value="1"/>
  <variable name="Y(85,28)" index="6159" value="1"/>
  <variable name="Y(87,32)" index="6309" value="1"/>
  <variable name="Y(91,37)" index="6606" value="1"/>
  <variable name="Y(101,20)" index="7319" value="1"/>
  <variable name="Y(114,34)" index="8282" value="1"/>
  <variable name="Y(119,17)" index="8630" value="1"/>
  <variable name="Y(122,18)" index="8850" value="1"/>
  <variable name="Y(125,1)" index="9052" value="1"/>
  <variable name="Y(127,3)" index="9200" value="1"/>
  <variable name="Y(129,5)" index="9348" value="1"/>
  <variable name="Y(137,13)" index="9940" value="1"/>
  <variable name="Y(140,16)" index="10162" value="1"/>
  <variable name="Y(141,17)" index="10236" value="1"/>
  <variable name="Y(144,22)" index="10460" value="1"/>
  <variable name="Y(148,27)" index="10757" value="1"/>
  <variable name="Y(150,29)" index="10905" value="1"/>
  <variable name="Y(151,30)" index="10979" value="1"/>
  <variable name="Y(158,38)" index="11498" value="1"/>
  <variable name="Y(161,15)" index="11694" value="1"/>
  <variable name="Y(166,34)" index="12078" value="1"/>
  <variable name="Y(169,22)" index="12285" value="1"/>
  <variable name="Y(180,36)" index="13102" value="1"/>
  <variable name="Y(184,19)" index="13377" value="1"/>
  <variable name="Y(187,34)" index="13611" value="1"/>
  <variable name="Y(193,26)" index="14041" value="1"/>
  <variable name="Y(194,6)" index="14094" value="1"/>
  <variable name="Y(201,28)" index="14627" value="1"/>
  <variable name="Y(208,29)" index="15139" value="1"/>
  <variable name="Y(217,35)" index="15802" value="1"/>
  <variable name="Y(222,33)" index="16165" value="1"/>
  <variable name="Y(231,9)" index="16798" value="1"/>
  <variable name="Y(276,35)" index="20109" value="1"/>
  <variable name="Y(279,38)" index="20331" value="1"/>
  <variable name="X(1,36,2)" index="20587" value="1"/>
  <variable name="X(1,39,125)" index="20992" value="1"/>
  <variable name="X(2,6,8)" index="21157" value="1"/>
  <variable name="X(2,40,68)" index="21499" value="1"/>
  <variable name="X(3,6,13)" index="21726" value="1"/>
  <variable name="X(3,41,127)" index="22122" value="1"/>
  <variable name="X(4,36,18)" index="22295" value="1"/>
  <variable name="X(4,42,69)" index="22628" value="1"/>
  <variable name="X(5,35,23)" index="22864" value="1"/>
  <variable name="X(5,43,129)" index="23252" value="1"/>
  <variable name="X(6,2,68)" index="23473" value="1"/>
  <variable name="X(6,3,127)" index="23814" value="1"/>
  <variable name="X(6,10,74)" index="24043" value="1"/>
  <variable name="X(6,13,80)" index="24331" value="1"/>
  <variable name="X(6,14,45)" index="24578" value="1"/>
  <variable name="X(6,22,144)" index="24959" value="1"/>
  <variable name="X(6,23,29)" index="25126" value="1"/>
  <variable name="X(6,27,148)" index="25527" value="1"/>
  <variable name="X(6,28,85)" index="25746" value="1"/>
  <variable name="X(6,30,151)" index="26094" value="1"/>
  <variable name="X(6,34,82)" index="26307" value="1"/>
  <variable name="X(6,36,180)" index="26687" value="1"/>
  <variable name="X(6,44,194)" index="26983" value="1"/>
  <variable name="X(7,19,36)" index="27107" value="1"/>
  <variable name="X(7,45,71)" index="27424" value="1"/>
  <variable name="X(8,35,40)" index="27675" value="1"/>
  <variable name="X(8,46,72)" index="27989" value="1"/>
  <variable name="X(9,13,45)" index="28244" value="1"/>
  <variable name="X(9,47,231)" index="28712" value="1"/>
  <variable name="X(10,48,74)" index="28837" value="1"/>
  <variable name="X(11,19,53)" index="29098" value="1"/>
  <variable name="X(11,49,75)" index="29402" value="1"/>
  <variable name="X(12,19,56)" index="29665" value="1"/>
  <variable name="X(12,50,59)" index="29950" value="1"/>
  <variable name="X(13,6,45)" index="30218" value="1"/>
  <variable name="X(13,9,231)" index="30686" value="1"/>
  <variable name="X(13,21,80)" index="30817" value="1"/>
  <variable name="X(13,34,166)" index="31185" value="1"/>
  <variable name="X(13,51,137)" index="31438" value="1"/>
  <variable name="X(14,6,68)" index="31651" value="1"/>
  <variable name="X(14,52,45)" index="31910" value="1"/>
  <variable name="X(15,19,101)" index="32248" value="1"/>
  <variable name="X(15,53,161)" index="32590" value="1"/>
  <variable name="X(16,34,114)" index="32825" value="1"/>
  <variable name="X(16,54,140)" index="33133" value="1"/>
  <variable name="X(17,31,119)" index="33394" value="1"/>
  <variable name="X(17,55,141)" index="33698" value="1"/>
  <variable name="X(18,36,122)" index="33961" value="1"/>
  <variable name="X(19,7,71)" index="34192" value="1"/>
  <variable name="X(19,11,75)" index="34478" value="1"/>
  <variable name="X(19,12,59)" index="34744" value="1"/>
  <variable name="X(19,15,161)" index="35128" value="1"/>
  <variable name="X(19,20,101)" index="35350" value="1"/>
  <variable name="X(19,29,150)" index="35681" value="1"/>
  <variable name="X(19,31,53)" index="35866" value="1"/>
  <variable name="X(19,32,87)" index="36182" value="1"/>
  <variable name="X(19,34,217)" index="36594" value="1"/>
  <variable name="X(19,57,184)" index="36843" value="1"/>
  <variable name="X(20,19,161)" index="37102" value="1"/>
  <variable name="X(20,58,101)" index="37324" value="1"/>
  <variable name="X(21,13,166)" index="37671" value="1"/>
  <variable name="X(21,59,80)" index="37867" value="1"/>
  <variable name="X(22,6,169)" index="38238" value="1"/>
  <variable name="X(22,60,144)" index="38495" value="1"/>
  <variable name="X(23,6,180)" index="38813" value="1"/>
  <variable name="X(23,61,29)" index="38944" value="1"/>
  <variable name="X(24,31,184)" index="39381" value="1"/>
  <variable name="X(25,34,187)" index="39666" value="1"/>
  <variable name="X(25,63,82)" index="39843" value="1"/>
  <variable name="X(26,35,193)" index="40236" value="1"/>
  <variable name="X(26,64,83)" index="40408" value="1"/>
  <variable name="X(27,6,194)" index="40801" value="1"/>
  <variable name="X(27,65,148)" index="41037" value="1"/>
  <variable name="X(28,6,201)" index="41372" value="1"/>
  <variable name="X(28,66,85)" index="41538" value="1"/>
  <variable name="X(29,19,208)" index="41943" value="1"/>
  <variable name="X(29,67,150)" index="42167" value="1"/>
  <variable name="X(30,68,151)" index="42450" value="1"/>
  <variable name="X(31,17,141)" index="42722" value="1"/>
  <variable name="X(31,19,184)" index="43047" value="1"/>
  <variable name="X(31,38,158)" index="43303" value="1"/>
  <variable name="X(31,69,53)" index="43480" value="1"/>
  <variable name="X(32,19,217)" index="43926" value="1"/>
  <variable name="X(32,70,87)" index="44078" value="1"/>
  <variable name="X(33,6,222)" index="44495" value="1"/>
  <variable name="X(34,6,187)" index="44742" value="1"/>
  <variable name="X(34,13,231)" index="45068" value="1"/>
  <variable name="X(34,16,140)" index="45259" value="1"/>
  <variable name="X(34,19,114)" index="45515" value="1"/>
  <variable name="X(34,25,82)" index="45765" value="1"/>
  <variable name="X(34,35,217)" index="46182" value="1"/>
  <variable name="X(34,72,166)" index="46413" value="1"/>
  <variable name="X(35,5,129)" index="46658" value="1"/>
  <variable name="X(35,8,72)" index="46883" value="1"/>
  <variable name="X(35,26,83)" index="47176" value="1"/>
  <variable name="X(35,34,276)" index="47651" value="1"/>
  <variable name="X(35,37,91)" index="47748" value="1"/>
  <variable name="X(35,73,217)" index="48156" value="1"/>
  <variable name="X(36,1,125)" index="48346" value="1"/>
  <variable name="X(36,4,69)" index="48572" value="1"/>
  <variable name="X(36,6,2)" index="48787" value="1"/>
  <variable name="X(36,74,180)" index="49247" value="1"/>
  <variable name="X(37,35,276)" index="49625" value="1"/>
  <variable name="X(37,75,91)" index="49722" value="1"/>
  <variable name="X(38,31,279)" index="50192" value="1"/>
  <variable name="X(38,76,158)" index="50353" value="1"/>
  <variable name="C(2,36)" index="50482" value="1"/>
  <variable name="C(29,23)" index="50587" value="1"/>
  <variable name="C(45,13)" index="50641" value="1"/>
  <variable name="C(45,6)" index="50642" value="2"/>
  <variable name="C(45,14)" index="50643" value="3"/>
  <variable name="C(53,19)" index="50671" value="1"/>
  <variable name="C(53,31)" index="50672" value="2"/>
  <variable name="C(59,12)" index="50690" value="1"/>
  <variable name="C(68,6)" index="50717" value="1"/>
  <variable name="C(68,2)" index="50718" value="2"/>
  <variable name="C(69,4)" index="50722" value="1"/>
  <variable name="C(71,7)" index="50729" value="1"/>
  <variable name="C(72,8)" index="50734" value="1"/>
  <variable name="C(74,10)" index="50741" value="1"/>
  <variable name="C(75,11)" index="50746" value="1"/>
  <variable name="C(80,13)" index="50768" value="0.99999999900000003"/>
  <variable name="C(80,21)" index="50769" value="1.9999999989999999"/>
  <variable name="C(82,34)" index="50775" value="1"/>
  <variable name="C(82,25)" index="50776" value="2"/>
  <variable name="C(83,26)" index="50781" value="1"/>
  <variable name="C(85,28)" index="50787" value="1"/>
  <variable name="C(87,32)" index="50797" value="1"/>
  <variable name="C(91,37)" index="50812" value="1"/>
  <variable name="C(101,19)" index="50851" value="1"/>
  <variable name="C(101,20)" index="50852" value="2"/>
  <variable name="C(114,34)" index="50902" value="1"/>
  <variable name="C(122,18)" index="50930" value="3.0001000000000033"/>
  <variable name="C(125,1)" index="50946" value="1"/>
  <variable name="C(127,3)" index="50954" value="1"/>
  <variable name="C(129,5)" index="50963" value="1"/>
  <variable name="C(140,16)" index="50996" value="1"/>
  <variable name="C(141,17)" index="50999" value="1"/>
  <variable name="C(144,22)" index="51009" value="1"/>
  <variable name="C(148,27)" index="51024" value="1"/>
  <variable name="C(150,29)" index="51030" value="1"/>
  <variable name="C(151,30)" index="51034" value="1"/>
  <variable name="C(158,38)" index="51054" value="1"/>
  <variable name="C(161,19)" index="51065" value="1"/>
  <variable name="C(161,15)" index="51066" value="2"/>
  <variable name="C(166,13)" index="51080" value="1"/>
  <variable name="C(166,34)" index="51081" value="2"/>
  <variable name="C(180,6)" index="51131" value="1"/>
  <variable name="C(180,36)" index="51132" value="2"/>
  <variable name="C(184,31)" index="51149" value="1"/>
  <variable name="C(184,19)" index="51150" value="2"/>
  <variable name="C(187,34)" index="51159" value="1"/>
  <variable name="C(194,6)" index="51183" value="1"/>
  <variable name="C(217,19)" index="51261" value="1"/>
  <variable name="C(217,34)" index="51262" value="2"/>
  <variable name="C(217,35)" index="51263" value="3"/>
  <variable name="C(231,13)" index="51309" value="1"/>
  <variable name="C(231,9)" index="51310" value="2"/>
  <variable name="C(276,35)" index="51456" value="1"/>
 </variables>
</CPLEXSolution>
